
Gurobi 12.0.3 (linux64) logging started Fri Mar 27 14:56:40 2026

Set parameter LogFile to value "/home/solar-wind/WT_Solar_results_bigM100000_thread4/case24_ieee_rts_theta0.15_epsilon0.1_gurobi_seed0_num_gen38_N_WDR250_load_scaling_factor1_EIFICA_T24_num_Solar5_num_WT10.txt"
Gurobi Optimizer version 12.0.3 build v12.0.3rc0 (linux64 - "Ubuntu 22.04.5 LTS")

CPU model: Intel(R) Xeon(R) Platinum 8378A CPU @ 3.00GHz, instruction set [SSE2|AVX|AVX2|AVX512]
Thread count: 32 physical cores, 64 logical processors, using up to 4 threads

Non-default parameters:
TimeLimit  14400
MIPGap  0.001
Threads  4

Academic license 2721591 - for non-commercial use only - registered to fa___@mails.neu.edu.cn
Optimize a model with 751308 rows, 2075 columns and 63280408 nonzeros
Model fingerprint: 0xda0ef2ab
Model has 912 quadratic objective terms
Coefficient statistics:
  Matrix range     [3e-07, 7e+01]
  Objective range  [2e+01, 6e+01]
  QObjective range [4e-03, 2e-02]
  Bounds range     [0e+00, 0e+00]
  RHS range        [6e-02, 1e+03]
Presolve removed 521568 rows and 0 columns (presolve time = 5s)...
Presolve removed 522442 rows and 0 columns
Presolve time: 6.66s
Presolved: 228866 rows, 2949 columns, 4808846 nonzeros
Presolved model has 912 quadratic objective terms
Elapsed ordering time = 6s
Elapsed ordering time = 21s
Ordering time: 40.61s
Elapsed ordering time = 41s
Elapsed ordering time = 45s
Elapsed ordering time = 50s
Elapsed ordering time = 57s
Elapsed ordering time = 60s
Elapsed ordering time = 65s
Elapsed ordering time = 70s
Elapsed ordering time = 74s
Elapsed ordering time = 76s
Elapsed ordering time = 82s
Elapsed ordering time = 85s
Ordering time: 90.33s

Barrier statistics:
 Dense cols : 989
 AA' NZ     : 3.275e+08
 Factor NZ  : 1.645e+09 (roughly 13.0 GB of memory)
 Factor Ops : 3.300e+13 (roughly 180 seconds per iteration)
 Threads    : 4

                  Objective                Residual
Iter       Primal          Dual         Primal    Dual     Compl     Time
   0   5.46484467e+08 -2.66696089e+08  3.65e+04 9.94e+02  9.92e+05   225s
   1   5.13393347e+08 -2.42490504e+08  3.50e+04 9.52e+02  9.50e+05   225s
   2   5.07730308e+08 -3.17993464e+08  3.47e+04 9.44e+02  9.46e+05   226s
   3   4.72519677e+08 -4.16459209e+08  3.30e+04 8.97e+02  9.16e+05   226s
   4   4.20518159e+08 -4.88388312e+08  3.05e+04 8.24e+02  8.66e+05   227s
   5   3.76006807e+08 -5.72624672e+08  2.82e+04 7.59e+02  8.40e+05   227s
   6   3.37747549e+08 -5.89780283e+08  2.62e+04 7.01e+02  7.77e+05   227s
   7   3.04712423e+08 -6.08923276e+08  2.44e+04 6.48e+02  7.20e+05   227s
   8   2.72857109e+08 -6.30370490e+08  2.25e+04 5.96e+02  6.63e+05   227s
   9   2.41348129e+08 -6.53646663e+08  2.05e+04 5.44e+02  6.06e+05   228s
  10   2.13883607e+08 -6.82883579e+08  1.87e+04 4.95e+02  5.52e+05   228s
  11   1.90767499e+08 -7.07274919e+08  1.72e+04 4.52e+02  5.05e+05   228s
  12   1.68958609e+08 -7.35796128e+08  1.57e+04 4.09e+02  4.58e+05   228s
  13   1.53519306e+08 -7.52010818e+08  1.45e+04 3.77e+02  4.23e+05   228s
  14   1.30437598e+08 -7.75440933e+08  1.27e+04 3.28e+02  3.70e+05   228s
  15   1.13627403e+08 -7.96644876e+08  1.14e+04 2.91e+02  3.29e+05   229s
  16   9.57918244e+07 -8.19473999e+08  9.94e+03 2.51e+02  2.85e+05   229s
  17   8.54189635e+07 -8.39609067e+08  9.04e+03 2.27e+02  2.58e+05   229s
  18   7.49133953e+07 -8.61324697e+08  8.10e+03 2.02e+02  2.30e+05   229s
  19   6.33781486e+07 -8.85424270e+08  7.03e+03 1.74e+02  1.99e+05   229s
  20   5.34347229e+07 -9.06051359e+08  6.07e+03 1.49e+02  1.71e+05   229s
  21   4.50664845e+07 -9.22881446e+08  5.23e+03 1.27e+02  1.47e+05   230s
  22   3.71609316e+07 -9.38190955e+08  4.39e+03 1.06e+02  1.23e+05   230s
  23   2.98886828e+07 -9.47161030e+08  3.90e+03 8.62e+01  1.01e+05   230s
  24   2.13379858e+07 -9.48149392e+08  3.91e+03 6.22e+01  7.39e+04   230s
  25   6.32103096e+06 -8.96119875e+08  2.21e+03 1.77e+01  2.88e+04   230s
  26   5.19236732e+06 -8.38789716e+08  1.83e+03 1.42e+01  2.33e+04   230s
  27   4.69853863e+06 -8.03900101e+08  1.64e+03 1.27e+01  2.09e+04   230s
  28   4.01727258e+06 -7.50169500e+08  1.36e+03 1.06e+01  1.75e+04   231s
  29   3.30928379e+06 -6.86321903e+08  1.09e+03 8.43e+00  1.41e+04   231s
  30   2.58510021e+06 -6.10735622e+08  8.12e+02 6.22e+00  1.06e+04   231s
  31   2.26083085e+06 -5.90165894e+08  6.74e+02 5.20e+00  9.28e+03   231s
  32   1.83266174e+06 -5.20190295e+08  5.02e+02 3.84e+00  6.97e+03   231s
  33   1.37520621e+06 -5.30165418e+08  2.78e+02 2.29e+00  5.32e+03   231s
  34   1.11445054e+06 -4.19582646e+08  1.68e+02 1.39e+00  3.38e+03   232s
  35   1.01261494e+06 -3.76899690e+08  1.23e+02 1.02e+00  2.71e+03   232s
  36   9.24011466e+05 -3.23754791e+08  8.49e+01 6.94e-01  2.06e+03   232s
  37   8.75198917e+05 -2.77446110e+08  6.03e+01 4.97e-01  1.62e+03   233s
  38   8.48610692e+05 -2.40472168e+08  4.58e+01 3.81e-01  1.33e+03   233s
  39   8.27152329e+05 -2.06820673e+08  3.45e+01 2.84e-01  1.09e+03   234s
  40   8.16365880e+05 -1.95163239e+08  2.78e+01 2.26e-01  9.94e+02   235s
  41   8.03029579e+05 -1.57045738e+08  1.75e+01 1.44e-01  7.63e+02   235s
  42   8.01929589e+05 -1.54300314e+08  1.61e+01 1.32e-01  7.44e+02   236s
  43   8.01015518e+05 -1.45148278e+08  1.44e+01 1.18e-01  6.96e+02   238s
  44   7.99744056e+05 -1.09365247e+08  1.06e+01 8.64e-02  5.16e+02   239s
  45   7.99419981e+05 -9.99119561e+07  9.21e+00 7.51e-02  4.74e+02   244s
  46   7.99103050e+05 -8.22187373e+07  6.78e+00 5.52e-02  3.81e+02   246s
  47   7.98260874e+05 -4.43501073e+07  3.96e+00 2.80e-02  2.02e+02   248s
  48   7.97786291e+05 -2.39873623e+07  2.60e+00 8.67e-03  1.08e+02   251s
  49   7.96622613e+05 -1.16952235e+07  6.98e-01 2.98e-03  5.39e+01   257s
  50   7.93321122e+05 -1.11803716e+06  4.09e-05 7.22e-03  8.21e+00   368s
  51   7.70200069e+05  5.10588385e+05  1.93e-04 9.68e-04  1.12e+00   465s
  52   7.46421308e+05  6.35423500e+05  6.84e-05 3.50e-04  4.77e-01   579s
  53   7.26135025e+05  6.81475161e+05  1.93e-05 4.45e-05  1.92e-01   701s
  54   7.21712461e+05  6.98425624e+05  4.02e-06 9.26e-06  1.00e-01   834s
  55   7.20256364e+05  7.04944841e+05  5.19e-11 1.06e-11  6.58e-02   968s
  56   7.18658181e+05  7.13194477e+05  8.65e-11 1.17e-11  2.35e-02  1103s
  57   7.17985586e+05  7.16626734e+05  2.49e-10 8.98e-12  5.84e-03  1238s
  58   7.17831339e+05  7.17286789e+05  1.03e-09 1.19e-11  2.34e-03  1375s
  59   7.17769982e+05  7.17574560e+05  2.99e-10 3.84e-12  8.40e-04  1515s
  60   7.17744174e+05  7.17695802e+05  1.26e-10 2.79e-12  2.08e-04  1656s
  61   7.17737029e+05  7.17729482e+05  2.50e-10 2.67e-11  3.24e-05  1786s
  62   7.17736208e+05  7.17733366e+05  1.06e-09 1.32e-11  1.22e-05  1916s
  63   7.17735718e+05  7.17735692e+05  9.16e-09 1.95e-10  1.11e-07  2048s
  64   7.17735714e+05  7.17735711e+05  1.84e-07 3.95e-09  1.30e-08  2179s
  65   7.17735714e+05  7.17735711e+05  1.16e-06 1.73e-09  9.92e-09  2311s

Barrier solved model in 65 iterations and 2310.67 seconds (2858.16 work units)
Optimal objective 7.17735714e+05

